K-Path Generated by VASPKIT.
   40
Line-Mode
Reciprocal
   0.0000000000   0.0000000000   0.0000000000     \Gamma
   0.0000000000   0.5000000000   0.0000000000     Y
      
   0.0000000000   0.5000000000   0.0000000000     Y              
   0.5000000000   0.5000000000   0.0000000000     S              
 
   0.5000000000   0.5000000000   0.0000000000     S              
   0.5000000000   0.0000000000   0.0000000000     X              
 
   0.5000000000   0.0000000000   0.0000000000     X             
   0.0000000000   0.0000000000   0.0000000000     \Gamma          
