Ni  C                                   
   1.00000000000000     
    11.1406193474955675   -0.0000000000000000    0.0000000000000000
     0.0000000000000000    4.3895982696562079    0.0000000000000000
     0.0000000000000000    0.0000000000000000   15.9932106135945524
   Ni   C 
     4    12
Direct
  0.2810301840939928  0.5806908309999983  0.5000000000000000
  0.8275109759060086  0.5806908309999983  0.5000000000000000
  0.7810325980939865  0.0806908309999983  0.5000000000000000
  0.3275135389060111  0.0806908309999983  0.5000000000000000
  0.0542718170000001  0.4134745075072503  0.5000000000000000
  0.0542718170000001  0.7479071544927534  0.5000000000000000
  0.5542716380000030  0.9134745075072503  0.5000000000000000
  0.5542716380000030  0.2479071394927556  0.5000000000000000
  0.9458820083074243  0.9202019577244949  0.5000000000000000
  0.1626620806925744  0.2411783782755058  0.5000000000000000
  0.1626620806925744  0.9202032687244932  0.5000000000000000
  0.9458820083074243  0.2411796742755065  0.5000000000000000
  0.4458815313074239  0.4202033587244935  0.5000000000000000
  0.6626617456925786  0.7411797642755067  0.5000000000000000
  0.6626617456925786  0.4202019277244923  0.5000000000000000
  0.4458815313074239  0.7411783332755055  0.5000000000000000
 
  0.00000000E+00  0.00000000E+00  0.00000000E+00
  0.00000000E+00  0.00000000E+00  0.00000000E+00
  0.00000000E+00  0.00000000E+00  0.00000000E+00
  0.00000000E+00  0.00000000E+00  0.00000000E+00
  0.00000000E+00  0.00000000E+00  0.00000000E+00
  0.00000000E+00  0.00000000E+00  0.00000000E+00
  0.00000000E+00  0.00000000E+00  0.00000000E+00
  0.00000000E+00  0.00000000E+00  0.00000000E+00
  0.00000000E+00  0.00000000E+00  0.00000000E+00
  0.00000000E+00  0.00000000E+00  0.00000000E+00
  0.00000000E+00  0.00000000E+00  0.00000000E+00
  0.00000000E+00  0.00000000E+00  0.00000000E+00
  0.00000000E+00  0.00000000E+00  0.00000000E+00
  0.00000000E+00  0.00000000E+00  0.00000000E+00
  0.00000000E+00  0.00000000E+00  0.00000000E+00
  0.00000000E+00  0.00000000E+00  0.00000000E+00
